letting n =  10
letting blocks =  [[1, 1], [1, 2], [2, 1], [2, 9], [3, 7], [3, 8], [3, 9], [4, 3], [5, 4], [5, 5], [5, 7], [6, 4], [6, 5], [6, 7], [6, 9], [7, 3], [7, 6], [7, 7], [8, 5], [8, 9], [9, 1], [9, 2], [9, 3], [9, 5], [9, 6], [9, 8], [10, 3], [10, 4], [10, 7], [10, 8]]
